c description: Graph 4-Colorability of graph: 
c generator: CNFgen (0.9.0)
c copyright: (C) 2012-2020 Massimo Lauria <massimo.lauria@uniroma1.it>
c url: https://massimolauria.net/cnfgen
c
p cnf 200 1150
1 2 3 4 0
-1 -2 0
-1 -3 0
-1 -4 0
-2 -3 0
-2 -4 0
-3 -4 0
5 6 7 8 0
-5 -6 0
-5 -7 0
-5 -8 0
-6 -7 0
-6 -8 0
-7 -8 0
9 10 11 12 0
-9 -10 0
-9 -11 0
-9 -12 0
-10 -11 0
-10 -12 0
-11 -12 0
13 14 15 16 0
-13 -14 0
-13 -15 0
-13 -16 0
-14 -15 0
-14 -16 0
-15 -16 0
17 18 19 20 0
-17 -18 0
-17 -19 0
-17 -20 0
-18 -19 0
-18 -20 0
-19 -20 0
21 22 23 24 0
-21 -22 0
-21 -23 0
-21 -24 0
-22 -23 0
-22 -24 0
-23 -24 0
25 26 27 28 0
-25 -26 0
-25 -27 0
-25 -28 0
-26 -27 0
-26 -28 0
-27 -28 0
29 30 31 32 0
-29 -30 0
-29 -31 0
-29 -32 0
-30 -31 0
-30 -32 0
-31 -32 0
33 34 35 36 0
-33 -34 0
-33 -35 0
-33 -36 0
-34 -35 0
-34 -36 0
-35 -36 0
37 38 39 40 0
-37 -38 0
-37 -39 0
-37 -40 0
-38 -39 0
-38 -40 0
-39 -40 0
41 42 43 44 0
-41 -42 0
-41 -43 0
-41 -44 0
-42 -43 0
-42 -44 0
-43 -44 0
45 46 47 48 0
-45 -46 0
-45 -47 0
-45 -48 0
-46 -47 0
-46 -48 0
-47 -48 0
49 50 51 52 0
-49 -50 0
-49 -51 0
-49 -52 0
-50 -51 0
-50 -52 0
-51 -52 0
53 54 55 56 0
-53 -54 0
-53 -55 0
-53 -56 0
-54 -55 0
-54 -56 0
-55 -56 0
57 58 59 60 0
-57 -58 0
-57 -59 0
-57 -60 0
-58 -59 0
-58 -60 0
-59 -60 0
61 62 63 64 0
-61 -62 0
-61 -63 0
-61 -64 0
-62 -63 0
-62 -64 0
-63 -64 0
65 66 67 68 0
-65 -66 0
-65 -67 0
-65 -68 0
-66 -67 0
-66 -68 0
-67 -68 0
69 70 71 72 0
-69 -70 0
-69 -71 0
-69 -72 0
-70 -71 0
-70 -72 0
-71 -72 0
73 74 75 76 0
-73 -74 0
-73 -75 0
-73 -76 0
-74 -75 0
-74 -76 0
-75 -76 0
77 78 79 80 0
-77 -78 0
-77 -79 0
-77 -80 0
-78 -79 0
-78 -80 0
-79 -80 0
81 82 83 84 0
-81 -82 0
-81 -83 0
-81 -84 0
-82 -83 0
-82 -84 0
-83 -84 0
85 86 87 88 0
-85 -86 0
-85 -87 0
-85 -88 0
-86 -87 0
-86 -88 0
-87 -88 0
89 90 91 92 0
-89 -90 0
-89 -91 0
-89 -92 0
-90 -91 0
-90 -92 0
-91 -92 0
93 94 95 96 0
-93 -94 0
-93 -95 0
-93 -96 0
-94 -95 0
-94 -96 0
-95 -96 0
97 98 99 100 0
-97 -98 0
-97 -99 0
-97 -100 0
-98 -99 0
-98 -100 0
-99 -100 0
101 102 103 104 0
-101 -102 0
-101 -103 0
-101 -104 0
-102 -103 0
-102 -104 0
-103 -104 0
105 106 107 108 0
-105 -106 0
-105 -107 0
-105 -108 0
-106 -107 0
-106 -108 0
-107 -108 0
109 110 111 112 0
-109 -110 0
-109 -111 0
-109 -112 0
-110 -111 0
-110 -112 0
-111 -112 0
113 114 115 116 0
-113 -114 0
-113 -115 0
-113 -116 0
-114 -115 0
-114 -116 0
-115 -116 0
117 118 119 120 0
-117 -118 0
-117 -119 0
-117 -120 0
-118 -119 0
-118 -120 0
-119 -120 0
121 122 123 124 0
-121 -122 0
-121 -123 0
-121 -124 0
-122 -123 0
-122 -124 0
-123 -124 0
125 126 127 128 0
-125 -126 0
-125 -127 0
-125 -128 0
-126 -127 0
-126 -128 0
-127 -128 0
129 130 131 132 0
-129 -130 0
-129 -131 0
-129 -132 0
-130 -131 0
-130 -132 0
-131 -132 0
133 134 135 136 0
-133 -134 0
-133 -135 0
-133 -136 0
-134 -135 0
-134 -136 0
-135 -136 0
137 138 139 140 0
-137 -138 0
-137 -139 0
-137 -140 0
-138 -139 0
-138 -140 0
-139 -140 0
141 142 143 144 0
-141 -142 0
-141 -143 0
-141 -144 0
-142 -143 0
-142 -144 0
-143 -144 0
145 146 147 148 0
-145 -146 0
-145 -147 0
-145 -148 0
-146 -147 0
-146 -148 0
-147 -148 0
149 150 151 152 0
-149 -150 0
-149 -151 0
-149 -152 0
-150 -151 0
-150 -152 0
-151 -152 0
153 154 155 156 0
-153 -154 0
-153 -155 0
-153 -156 0
-154 -155 0
-154 -156 0
-155 -156 0
157 158 159 160 0
-157 -158 0
-157 -159 0
-157 -160 0
-158 -159 0
-158 -160 0
-159 -160 0
161 162 163 164 0
-161 -162 0
-161 -163 0
-161 -164 0
-162 -163 0
-162 -164 0
-163 -164 0
165 166 167 168 0
-165 -166 0
-165 -167 0
-165 -168 0
-166 -167 0
-166 -168 0
-167 -168 0
169 170 171 172 0
-169 -170 0
-169 -171 0
-169 -172 0
-170 -171 0
-170 -172 0
-171 -172 0
173 174 175 176 0
-173 -174 0
-173 -175 0
-173 -176 0
-174 -175 0
-174 -176 0
-175 -176 0
177 178 179 180 0
-177 -178 0
-177 -179 0
-177 -180 0
-178 -179 0
-178 -180 0
-179 -180 0
181 182 183 184 0
-181 -182 0
-181 -183 0
-181 -184 0
-182 -183 0
-182 -184 0
-183 -184 0
185 186 187 188 0
-185 -186 0
-185 -187 0
-185 -188 0
-186 -187 0
-186 -188 0
-187 -188 0
189 190 191 192 0
-189 -190 0
-189 -191 0
-189 -192 0
-190 -191 0
-190 -192 0
-191 -192 0
193 194 195 196 0
-193 -194 0
-193 -195 0
-193 -196 0
-194 -195 0
-194 -196 0
-195 -196 0
197 198 199 200 0
-197 -198 0
-197 -199 0
-197 -200 0
-198 -199 0
-198 -200 0
-199 -200 0
-1 -37 0
-2 -38 0
-3 -39 0
-4 -40 0
-1 -45 0
-2 -46 0
-3 -47 0
-4 -48 0
-1 -65 0
-2 -66 0
-3 -67 0
-4 -68 0
-1 -69 0
-2 -70 0
-3 -71 0
-4 -72 0
-1 -85 0
-2 -86 0
-3 -87 0
-4 -88 0
-1 -117 0
-2 -118 0
-3 -119 0
-4 -120 0
-1 -141 0
-2 -142 0
-3 -143 0
-4 -144 0
-1 -165 0
-2 -166 0
-3 -167 0
-4 -168 0
-1 -173 0
-2 -174 0
-3 -175 0
-4 -176 0
-1 -189 0
-2 -190 0
-3 -191 0
-4 -192 0
-5 -33 0
-6 -34 0
-7 -35 0
-8 -36 0
-5 -65 0
-6 -66 0
-7 -67 0
-8 -68 0
-5 -69 0
-6 -70 0
-7 -71 0
-8 -72 0
-5 -81 0
-6 -82 0
-7 -83 0
-8 -84 0
-5 -101 0
-6 -102 0
-7 -103 0
-8 -104 0
-5 -161 0
-6 -162 0
-7 -163 0
-8 -164 0
-9 -21 0
-10 -22 0
-11 -23 0
-12 -24 0
-9 -57 0
-10 -58 0
-11 -59 0
-12 -60 0
-9 -61 0
-10 -62 0
-11 -63 0
-12 -64 0
-9 -117 0
-10 -118 0
-11 -119 0
-12 -120 0
-9 -125 0
-10 -126 0
-11 -127 0
-12 -128 0
-9 -133 0
-10 -134 0
-11 -135 0
-12 -136 0
-9 -145 0
-10 -146 0
-11 -147 0
-12 -148 0
-9 -169 0
-10 -170 0
-11 -171 0
-12 -172 0
-9 -173 0
-10 -174 0
-11 -175 0
-12 -176 0
-13 -45 0
-14 -46 0
-15 -47 0
-16 -48 0
-13 -57 0
-14 -58 0
-15 -59 0
-16 -60 0
-13 -69 0
-14 -70 0
-15 -71 0
-16 -72 0
-13 -77 0
-14 -78 0
-15 -79 0
-16 -80 0
-13 -89 0
-14 -90 0
-15 -91 0
-16 -92 0
-13 -125 0
-14 -126 0
-15 -127 0
-16 -128 0
-13 -129 0
-14 -130 0
-15 -131 0
-16 -132 0
-13 -197 0
-14 -198 0
-15 -199 0
-16 -200 0
-17 -97 0
-18 -98 0
-19 -99 0
-20 -100 0
-17 -113 0
-18 -114 0
-19 -115 0
-20 -116 0
-17 -129 0
-18 -130 0
-19 -131 0
-20 -132 0
-17 -153 0
-18 -154 0
-19 -155 0
-20 -156 0
-17 -181 0
-18 -182 0
-19 -183 0
-20 -184 0
-21 -117 0
-22 -118 0
-23 -119 0
-24 -120 0
-21 -121 0
-22 -122 0
-23 -123 0
-24 -124 0
-21 -133 0
-22 -134 0
-23 -135 0
-24 -136 0
-21 -161 0
-22 -162 0
-23 -163 0
-24 -164 0
-21 -189 0
-22 -190 0
-23 -191 0
-24 -192 0
-21 -193 0
-22 -194 0
-23 -195 0
-24 -196 0
-21 -197 0
-22 -198 0
-23 -199 0
-24 -200 0
-25 -57 0
-26 -58 0
-27 -59 0
-28 -60 0
-25 -61 0
-26 -62 0
-27 -63 0
-28 -64 0
-25 -65 0
-26 -66 0
-27 -67 0
-28 -68 0
-25 -77 0
-26 -78 0
-27 -79 0
-28 -80 0
-25 -121 0
-26 -122 0
-27 -123 0
-28 -124 0
-25 -169 0
-26 -170 0
-27 -171 0
-28 -172 0
-29 -37 0
-30 -38 0
-31 -39 0
-32 -40 0
-29 -65 0
-30 -66 0
-31 -67 0
-32 -68 0
-29 -73 0
-30 -74 0
-31 -75 0
-32 -76 0
-29 -89 0
-30 -90 0
-31 -91 0
-32 -92 0
-29 -93 0
-30 -94 0
-31 -95 0
-32 -96 0
-29 -97 0
-30 -98 0
-31 -99 0
-32 -100 0
-29 -137 0
-30 -138 0
-31 -139 0
-32 -140 0
-29 -149 0
-30 -150 0
-31 -151 0
-32 -152 0
-29 -161 0
-30 -162 0
-31 -163 0
-32 -164 0
-29 -173 0
-30 -174 0
-31 -175 0
-32 -176 0
-29 -189 0
-30 -190 0
-31 -191 0
-32 -192 0
-33 -37 0
-34 -38 0
-35 -39 0
-36 -40 0
-33 -41 0
-34 -42 0
-35 -43 0
-36 -44 0
-33 -89 0
-34 -90 0
-35 -91 0
-36 -92 0
-33 -97 0
-34 -98 0
-35 -99 0
-36 -100 0
-33 -117 0
-34 -118 0
-35 -119 0
-36 -120 0
-33 -133 0
-34 -134 0
-35 -135 0
-36 -136 0
-33 -137 0
-34 -138 0
-35 -139 0
-36 -140 0
-33 -145 0
-34 -146 0
-35 -147 0
-36 -148 0
-33 -161 0
-34 -162 0
-35 -163 0
-36 -164 0
-37 -53 0
-38 -54 0
-39 -55 0
-40 -56 0
-37 -125 0
-38 -126 0
-39 -127 0
-40 -128 0
-37 -129 0
-38 -130 0
-39 -131 0
-40 -132 0
-37 -133 0
-38 -134 0
-39 -135 0
-40 -136 0
-37 -141 0
-38 -142 0
-39 -143 0
-40 -144 0
-37 -145 0
-38 -146 0
-39 -147 0
-40 -148 0
-37 -149 0
-38 -150 0
-39 -151 0
-40 -152 0
-37 -173 0
-38 -174 0
-39 -175 0
-40 -176 0
-37 -177 0
-38 -178 0
-39 -179 0
-40 -180 0
-41 -69 0
-42 -70 0
-43 -71 0
-44 -72 0
-41 -137 0
-42 -138 0
-43 -139 0
-44 -140 0
-41 -181 0
-42 -182 0
-43 -183 0
-44 -184 0
-41 -185 0
-42 -186 0
-43 -187 0
-44 -188 0
-45 -53 0
-46 -54 0
-47 -55 0
-48 -56 0
-45 -129 0
-46 -130 0
-47 -131 0
-48 -132 0
-45 -137 0
-46 -138 0
-47 -139 0
-48 -140 0
-45 -149 0
-46 -150 0
-47 -151 0
-48 -152 0
-45 -153 0
-46 -154 0
-47 -155 0
-48 -156 0
-45 -197 0
-46 -198 0
-47 -199 0
-48 -200 0
-49 -81 0
-50 -82 0
-51 -83 0
-52 -84 0
-49 -141 0
-50 -142 0
-51 -143 0
-52 -144 0
-49 -153 0
-50 -154 0
-51 -155 0
-52 -156 0
-49 -161 0
-50 -162 0
-51 -163 0
-52 -164 0
-49 -189 0
-50 -190 0
-51 -191 0
-52 -192 0
-53 -89 0
-54 -90 0
-55 -91 0
-56 -92 0
-53 -97 0
-54 -98 0
-55 -99 0
-56 -100 0
-53 -105 0
-54 -106 0
-55 -107 0
-56 -108 0
-53 -125 0
-54 -126 0
-55 -127 0
-56 -128 0
-53 -137 0
-54 -138 0
-55 -139 0
-56 -140 0
-53 -181 0
-54 -182 0
-55 -183 0
-56 -184 0
-53 -189 0
-54 -190 0
-55 -191 0
-56 -192 0
-57 -105 0
-58 -106 0
-59 -107 0
-60 -108 0
-57 -109 0
-58 -110 0
-59 -111 0
-60 -112 0
-57 -113 0
-58 -114 0
-59 -115 0
-60 -116 0
-57 -149 0
-58 -150 0
-59 -151 0
-60 -152 0
-57 -165 0
-58 -166 0
-59 -167 0
-60 -168 0
-57 -169 0
-58 -170 0
-59 -171 0
-60 -172 0
-57 -177 0
-58 -178 0
-59 -179 0
-60 -180 0
-57 -185 0
-58 -186 0
-59 -187 0
-60 -188 0
-65 -73 0
-66 -74 0
-67 -75 0
-68 -76 0
-65 -185 0
-66 -186 0
-67 -187 0
-68 -188 0
-69 -77 0
-70 -78 0
-71 -79 0
-72 -80 0
-69 -81 0
-70 -82 0
-71 -83 0
-72 -84 0
-69 -89 0
-70 -90 0
-71 -91 0
-72 -92 0
-69 -117 0
-70 -118 0
-71 -119 0
-72 -120 0
-69 -129 0
-70 -130 0
-71 -131 0
-72 -132 0
-69 -185 0
-70 -186 0
-71 -187 0
-72 -188 0
-69 -189 0
-70 -190 0
-71 -191 0
-72 -192 0
-73 -89 0
-74 -90 0
-75 -91 0
-76 -92 0
-73 -113 0
-74 -114 0
-75 -115 0
-76 -116 0
-73 -145 0
-74 -146 0
-75 -147 0
-76 -148 0
-73 -149 0
-74 -150 0
-75 -151 0
-76 -152 0
-73 -165 0
-74 -166 0
-75 -167 0
-76 -168 0
-73 -189 0
-74 -190 0
-75 -191 0
-76 -192 0
-77 -109 0
-78 -110 0
-79 -111 0
-80 -112 0
-77 -133 0
-78 -134 0
-79 -135 0
-80 -136 0
-77 -157 0
-78 -158 0
-79 -159 0
-80 -160 0
-77 -165 0
-78 -166 0
-79 -167 0
-80 -168 0
-81 -109 0
-82 -110 0
-83 -111 0
-84 -112 0
-81 -117 0
-82 -118 0
-83 -119 0
-84 -120 0
-81 -137 0
-82 -138 0
-83 -139 0
-84 -140 0
-81 -193 0
-82 -194 0
-83 -195 0
-84 -196 0
-85 -89 0
-86 -90 0
-87 -91 0
-88 -92 0
-85 -101 0
-86 -102 0
-87 -103 0
-88 -104 0
-85 -169 0
-86 -170 0
-87 -171 0
-88 -172 0
-85 -177 0
-86 -178 0
-87 -179 0
-88 -180 0
-89 -93 0
-90 -94 0
-91 -95 0
-92 -96 0
-89 -137 0
-90 -138 0
-91 -139 0
-92 -140 0
-89 -157 0
-90 -158 0
-91 -159 0
-92 -160 0
-89 -169 0
-90 -170 0
-91 -171 0
-92 -172 0
-89 -177 0
-90 -178 0
-91 -179 0
-92 -180 0
-93 -101 0
-94 -102 0
-95 -103 0
-96 -104 0
-93 -113 0
-94 -114 0
-95 -115 0
-96 -116 0
-93 -133 0
-94 -134 0
-95 -135 0
-96 -136 0
-93 -137 0
-94 -138 0
-95 -139 0
-96 -140 0
-93 -149 0
-94 -150 0
-95 -151 0
-96 -152 0
-97 -109 0
-98 -110 0
-99 -111 0
-100 -112 0
-97 -125 0
-98 -126 0
-99 -127 0
-100 -128 0
-97 -173 0
-98 -174 0
-99 -175 0
-100 -176 0
-101 -125 0
-102 -126 0
-103 -127 0
-104 -128 0
-101 -133 0
-102 -134 0
-103 -135 0
-104 -136 0
-101 -173 0
-102 -174 0
-103 -175 0
-104 -176 0
-101 -193 0
-102 -194 0
-103 -195 0
-104 -196 0
-105 -129 0
-106 -130 0
-107 -131 0
-108 -132 0
-105 -185 0
-106 -186 0
-107 -187 0
-108 -188 0
-105 -197 0
-106 -198 0
-107 -199 0
-108 -200 0
-109 -113 0
-110 -114 0
-111 -115 0
-112 -116 0
-109 -141 0
-110 -142 0
-111 -143 0
-112 -144 0
-109 -145 0
-110 -146 0
-111 -147 0
-112 -148 0
-109 -149 0
-110 -150 0
-111 -151 0
-112 -152 0
-109 -181 0
-110 -182 0
-111 -183 0
-112 -184 0
-113 -121 0
-114 -122 0
-115 -123 0
-116 -124 0
-113 -129 0
-114 -130 0
-115 -131 0
-116 -132 0
-113 -165 0
-114 -166 0
-115 -167 0
-116 -168 0
-113 -193 0
-114 -194 0
-115 -195 0
-116 -196 0
-117 -137 0
-118 -138 0
-119 -139 0
-120 -140 0
-117 -169 0
-118 -170 0
-119 -171 0
-120 -172 0
-121 -125 0
-122 -126 0
-123 -127 0
-124 -128 0
-121 -165 0
-122 -166 0
-123 -167 0
-124 -168 0
-121 -173 0
-122 -174 0
-123 -175 0
-124 -176 0
-121 -181 0
-122 -182 0
-123 -183 0
-124 -184 0
-125 -133 0
-126 -134 0
-127 -135 0
-128 -136 0
-125 -161 0
-126 -162 0
-127 -163 0
-128 -164 0
-125 -189 0
-126 -190 0
-127 -191 0
-128 -192 0
-129 -173 0
-130 -174 0
-131 -175 0
-132 -176 0
-129 -189 0
-130 -190 0
-131 -191 0
-132 -192 0
-133 -137 0
-134 -138 0
-135 -139 0
-136 -140 0
-133 -145 0
-134 -146 0
-135 -147 0
-136 -148 0
-133 -177 0
-134 -178 0
-135 -179 0
-136 -180 0
-133 -181 0
-134 -182 0
-135 -183 0
-136 -184 0
-133 -193 0
-134 -194 0
-135 -195 0
-136 -196 0
-137 -145 0
-138 -146 0
-139 -147 0
-140 -148 0
-137 -157 0
-138 -158 0
-139 -159 0
-140 -160 0
-141 -153 0
-142 -154 0
-143 -155 0
-144 -156 0
-141 -157 0
-142 -158 0
-143 -159 0
-144 -160 0
-141 -169 0
-142 -170 0
-143 -171 0
-144 -172 0
-141 -177 0
-142 -178 0
-143 -179 0
-144 -180 0
-145 -185 0
-146 -186 0
-147 -187 0
-148 -188 0
-145 -197 0
-146 -198 0
-147 -199 0
-148 -200 0
-149 -157 0
-150 -158 0
-151 -159 0
-152 -160 0
-149 -189 0
-150 -190 0
-151 -191 0
-152 -192 0
-153 -157 0
-154 -158 0
-155 -159 0
-156 -160 0
-153 -165 0
-154 -166 0
-155 -167 0
-156 -168 0
-153 -169 0
-154 -170 0
-155 -171 0
-156 -172 0
-153 -181 0
-154 -182 0
-155 -183 0
-156 -184 0
-157 -185 0
-158 -186 0
-159 -187 0
-160 -188 0
-157 -197 0
-158 -198 0
-159 -199 0
-160 -200 0
-165 -185 0
-166 -186 0
-167 -187 0
-168 -188 0
-189 -193 0
-190 -194 0
-191 -195 0
-192 -196 0